Problem:    
Rows:       260
Columns:    89 (72 integer, 72 binary)
Non-zeros:  936
Status:     INTEGER OPTIMAL
Objective:  value = 38.001989 (MINimum)

   No.   Row name        Activity     Lower bound   Upper bound
------ ------------    ------------- ------------- -------------
     1 r.5                    38.002             0               
     2 r.6                    0.6077      -1014.67               
     3 r.7                      1062             0               
     4 r.8                   -1012.7      -1016.18               
     5 r.9                      1062             0               
     6 r.10                 -1014.15      -1014.76               
     7 r.11                   38.002             0               
     8 r.12                   0.6077      -1016.02               
     9 r.13                   38.002             0               
    10 r.14                   0.6077      -1023.23               
    11 r.15                     1062             0               
    12 r.16                 -1021.96      -1022.57               
    13 r.17                     1062             0               
    14 r.18                  -1012.7      -1022.54               
    15 r.19                   38.002             0               
    16 r.20                  11.3045      -1021.93               
    17 r.21                   38.002             0               
    18 r.22                   0.6077      -1019.55               
    19 r.23                     1062             0               
    20 r.24                 -991.375      -1020.02               
    21 r.25                     1062             0               
    22 r.26                 -1023.39      -1023.39               
    23 r.27                   38.002             0               
    24 r.28                   0.6077      -1022.65               
    25 r.29                     1062             0               
    26 r.30                 -985.998      -997.303               
    27 r.31                   38.002             0               
    28 r.32                   38.002      -962.776               
    29 r.33                   38.002             0               
    30 r.34                   38.002      -1013.74               
    31 r.35                     1062             0               
    32 r.36                 -985.998      -1018.62               
    33 r.37                        1             1             = 
    34 r.38                        1             1             = 
    35 r.39                        1             1             = 
    36 r.40                        1             1             = 
    37 r.41                        1             1             = 
    38 r.42                        1             1             = 
    39 r.43                        1             1             = 
    40 r.44                        1             1             = 
    41 r.45                     1025             2               
    42 r.46                    -1025         -1025               
    43 r.47                  2057.24      -1014.76               
    44 r.48                     1025             2               
    45 r.49                    -1025         -1025               
    46 r.50                   2037.3      -1016.02               
    47 r.51                     1024             2               
    48 r.52                    -1024         -1025               
    49 r.53                     2048      -1023.23               
    50 r.54                        2             2               
    51 r.55                       -2         -1025               
    52 r.56                 -9.26944      -1022.57               
    53 r.57                     1025             2               
    54 r.58                    -1025         -1025               
    55 r.59                   2058.7      -1022.54               
    56 r.60                     1025             2               
    57 r.61                    -1025         -1025               
    58 r.62                     2048      -1021.93               
    59 r.63                     1024             2               
    60 r.64                    -1024         -1025               
    61 r.65                     2048      -1019.55               
    62 r.66                        2             2               
    63 r.67                       -2         -1025               
    64 r.68                 -1002.68      -1020.02               
    65 r.69                        0             0               
    66 r.70                  2.87648             0               
    67 r.71                        0             0               
    68 r.72                  2.87648             0               
    69 r.73                 -986.606      -997.303               
    70 r.74                  37.3943      -962.776               
    71 r.75                 -997.303      -997.303               
    72 r.76                  26.6975      -962.776               
    73 r.77                  37.3943      -1013.74               
    74 r.78                 -986.606      -1018.62               
    75 r.79                  26.6975      -1013.74               
    76 r.80                 -997.303      -1018.62               
    77 r.81                     1025             2               
    78 r.82                    -1025         -1025               
    79 r.83                  2038.76       9.33491               
    80 r.84                     1025             2               
    81 r.85                    -1025         -1025               
    82 r.86                   2058.7       7.82031               
    83 r.87                     1025             2               
    84 r.88                    -1025         -1025               
    85 r.89                  2038.76      -1023.23               
    86 r.90                     1025             2               
    87 r.91                    -1025         -1025               
    88 r.92                  2049.43      -1022.57               
    89 r.93                        2             2               
    90 r.94                       -2         -1025               
    91 r.95                 -1022.54      -1022.54               
    92 r.96                     1024             2               
    93 r.97                    -1024         -1025               
    94 r.98                   2058.7      -1021.93               
    95 r.99                     1025             2               
    96 r.100                   -1025         -1025               
    97 r.101                 2038.76      -1019.55               
    98 r.102                    1025             2               
    99 r.103                   -1025         -1025               
   100 r.104                 2080.02      -1020.02               
   101 r.105                       0             0               
   102 r.106                       0             0               
   103 r.107                       0             0               
   104 r.108                       0             0               
   105 r.109                -995.844      -997.303               
   106 r.110                 28.1558      -962.776               
   107 r.111                -986.606      -997.303               
   108 r.112                 37.3943      -962.776               
   109 r.113                    1025             2               
   110 r.114                   -1025         -1025               
   111 r.115                 2076.16      -1013.74               
   112 r.116                    1025             2               
   113 r.117                   -1025         -1025               
   114 r.118                 2085.39      -1018.62               
   115 r.119                    1024             2               
   116 r.120                   -1024         -1025               
   117 r.121                    2048       9.33491               
   118 r.122                       2             2               
   119 r.123                      -2         -1025               
   120 r.124                 9.26944       7.82031               
   121 r.125                    1025             2               
   122 r.126                   -1025         -1025               
   123 r.127                 2057.24       9.23844               
   124 r.128                    1025             2               
   125 r.129                   -1025         -1025               
   126 r.130                 2046.57       7.97732               
   127 r.131                    1025             2               
   128 r.132                   -1025         -1025               
   129 r.133                  2058.7      -1022.54               
   130 r.134                    1025             2               
   131 r.135                   -1025         -1025               
   132 r.136                 2057.27      -1021.93               
   133 r.137                    1024             2               
   134 r.138                   -1024         -1025               
   135 r.139                    2048      -1019.55               
   136 r.140                       2             2               
   137 r.141                      -2         -1025               
   138 r.142                 -993.41      -1020.02               
   139 r.143                       0             0               
   140 r.144                       0             0               
   141 r.145                       0             0               
   142 r.146                       0             0               
   143 r.147                -986.606      -997.303               
   144 r.148                 37.3943      -962.776               
   145 r.149                -988.033      -997.303               
   146 r.150                 35.9669      -962.776               
   147 r.151                 37.3943      -1013.74               
   148 r.152                -986.606      -1018.62               
   149 r.153                 35.9669      -1013.74               
   150 r.154                -988.033      -1018.62               
   151 r.155                    1025             2               
   152 r.156                   -1025         -1025               
   153 r.157                  2037.3       9.33491               
   154 r.158                    1025             2               
   155 r.159                   -1025         -1025               
   156 r.160                    2048       7.82031               
   157 r.161                       2             2               
   158 r.162                      -2         -1025               
   159 r.163                 1022.54       9.23844               
   160 r.164                    1024             2               
   161 r.165                   -1024         -1025               
   162 r.166                  2037.3       7.97732               
   163 r.167                    1025             2               
   164 r.168                   -1025         -1025               
   165 r.169                  2037.3        0.7655               
   166 r.170                    1025             2               
   167 r.171                   -1025         -1025               
   168 r.172                 2038.73       1.42734               
   169 r.173                    1025             2               
   170 r.174                   -1025         -1025               
   171 r.175                  2037.3      -1019.55               
   172 r.176                    1025             2               
   173 r.177                   -1025         -1025               
   174 r.178                 2069.32      -1020.02               
   175 r.179                 9.23844             0               
   176 r.180                 10.6968             0               
   177 r.181                 9.23844             0               
   178 r.182                 10.6968             0               
   179 r.183                -997.303      -997.303               
   180 r.184                 26.6975      -962.776               
   181 r.185                -997.303      -997.303               
   182 r.186                 26.6975      -962.776               
   183 r.187                    1025             2               
   184 r.188                   -1025         -1025               
   185 r.189                  2074.7      -1013.74               
   186 r.190                    1025             2               
   187 r.191                   -1025         -1025               
   188 r.192                  2074.7      -1018.62               
   189 r.193                    1024             2               
   190 r.194                   -1024         -1025               
   191 r.195                    2048       9.33491               
   192 r.196                       2             2               
   193 r.197                      -2         -1025               
   194 r.198                 1002.68       7.82031               
   195 r.199                    1025             2               
   196 r.200                   -1025         -1025               
   197 r.201                 2057.24       9.23844               
   198 r.202                    1025             2               
   199 r.203                   -1025         -1025               
   200 r.204                 2015.98       7.97732               
   201 r.205                    1024             2               
   202 r.206                   -1024         -1025               
   203 r.207                    2048        0.7655               
   204 r.208                       2             2               
   205 r.209                      -2         -1025               
   206 r.210                  993.41       1.42734               
   207 r.211                    1025             2               
   208 r.212                   -1025         -1025               
   209 r.213                  2058.7       1.45834               
   210 r.214                    1025             2               
   211 r.215                   -1025         -1025               
   212 r.216                 2026.68       2.07033               
   213 r.217                       0             0               
   214 r.218                 28.0357             0               
   215 r.219                       0             0               
   216 r.220                 28.0357             0               
   217 r.221                    1025             2               
   218 r.222                   -1025         -1025               
   219 r.223                 2085.39      -997.303               
   220 r.224                    1025             2               
   221 r.225                   -1025         -1025               
   222 r.226                 2053.38      -962.776               
   223 r.227                 37.3943      -1013.74               
   224 r.228                -986.606      -1018.62               
   225 r.229                 5.37654      -1013.74               
   226 r.230                -1018.62      -1018.62               
   227 r.231                -986.606      -997.303               
   228 r.232                 37.3943      -962.776               
   229 r.233                -986.606      -997.303               
   230 r.234                 37.3943      -962.776               
   231 r.235                    1025             2               
   232 r.236                   -1025         -1025               
   233 r.237                 2010.61       4.45413               
   234 r.238                    1025             2               
   235 r.239                   -1025         -1025               
   236 r.240                 2042.62       3.98208               
   237 r.241                    1025             2               
   238 r.242                   -1025         -1025               
   239 r.243                    2048      -1013.74               
   240 r.244                    1025             2               
   241 r.245                   -1025         -1025               
   242 r.246                    2048      -1018.62               
   243 r.247                    1025             2               
   244 r.248                   -1025         -1025               
   245 r.249                 2019.84       9.23844               
   246 r.250                    1025             2               
   247 r.251                   -1025         -1025               
   248 r.252                 2010.61       7.97732               
   249 r.253                    1025             2               
   250 r.254                   -1025         -1025               
   251 r.255                  2021.3       1.45834               
   252 r.256                    1025             2               
   253 r.257                   -1025         -1025               
   254 r.258                  2021.3       2.07033               
   255 r.259                    1025             2               
   256 r.260                   -1025         -1025               
   257 r.261                    2048       26.6975               
   258 r.262                    1025             2               
   259 r.263                   -1025         -1025               
   260 r.264                    2048       61.2243               

   No. Column name       Activity     Lower bound   Upper bound
------ ------------    ------------- ------------- -------------
     1 tt                     38.002             0               
     2 s_1_1        *              0             0             1 
     3 t_1_1                 37.3943             0               
     4 s_1_8        *              0             0             1 
     5 s_2_1        *              1             0             1 
     6 t_2_1                 26.6975             0               
     7 s_2_8        *              1             0             1 
     8 s_1_2        *              1             0             1 
     9 t_1_2                 28.1558             0               
    10 s_1_7        *              1             0             1 
    11 s_2_2        *              0             0             1 
    12 t_2_2                 37.3943             0               
    13 s_2_7        *              0             0             1 
    14 s_1_3        *              0             0             1 
    15 t_1_3                 37.3943             0               
    16 s_2_3        *              1             0             1 
    17 t_2_3                 35.9669             0               
    18 s_1_4        *              1             0             1 
    19 t_1_4                 26.6975             0               
    20 s_2_4        *              0             0             1 
    21 t_2_4                 26.6975             0               
    22 s_1_5        *              0             0             1 
    23 t_1_5                 37.3943             0               
    24 s_2_5        *              1             0             1 
    25 t_2_5                 5.37654             0               
    26 s_1_6        *              1             0             1 
    27 t_1_6                 37.3943             0               
    28 s_2_6        *              0             0             1 
    29 t_2_6                 37.3943             0               
    30 t_1_7                       0             0               
    31 t_2_7                       0             0               
    32 t_1_8                       0             0               
    33 t_2_8                       0             0               
    34 r_1_1_2      *              1             0             1 
    35 u_1_1_2      *              0             0             1 
    36 r_2_1_2      *              1             0             1 
    37 u_2_1_2      *              0             0             1 
    38 r_1_1_3      *              1             0             1 
    39 u_1_1_3      *              0             0             1 
    40 r_2_1_3      *              0             0             1 
    41 u_2_1_3      *              0             0             1 
    42 r_1_1_4      *              1             0             1 
    43 u_1_1_4      *              0             0             1 
    44 r_2_1_4      *              1             0             1 
    45 u_2_1_4      *              0             0             1 
    46 r_1_1_5      *              1             0             1 
    47 u_1_1_5      *              0             0             1 
    48 r_2_1_5      *              0             0             1 
    49 u_2_1_5      *              1             0             1 
    50 r_1_2_3      *              1             0             1 
    51 u_1_2_3      *              0             0             1 
    52 r_2_2_3      *              1             0             1 
    53 u_2_2_3      *              0             0             1 
    54 r_1_2_4      *              0             0             1 
    55 u_1_2_4      *              1             0             1 
    56 r_2_2_4      *              1             0             1 
    57 u_2_2_4      *              0             0             1 
    58 r_1_2_5      *              1             0             1 
    59 u_1_2_5      *              0             0             1 
    60 r_2_2_5      *              1             0             1 
    61 u_2_2_5      *              0             0             1 
    62 r_1_2_8      *              1             0             1 
    63 u_1_2_8      *              0             0             1 
    64 r_2_2_8      *              1             0             1 
    65 u_2_2_8      *              0             0             1 
    66 r_1_3_4      *              1             0             1 
    67 u_1_3_4      *              0             0             1 
    68 r_2_3_4      *              1             0             1 
    69 u_2_3_4      *              0             0             1 
    70 r_1_3_5      *              1             0             1 
    71 u_1_3_5      *              0             0             1 
    72 r_2_3_5      *              0             0             1 
    73 u_2_3_5      *              1             0             1 
    74 r_1_4_5      *              1             0             1 
    75 u_1_4_5      *              0             0             1 
    76 r_2_4_5      *              1             0             1 
    77 u_2_4_5      *              0             0             1 
    78 r_1_4_8      *              1             0             1 
    79 u_1_4_8      *              0             0             1 
    80 r_2_4_8      *              1             0             1 
    81 u_2_4_8      *              0             0             1 
    82 r_1_5_7      *              1             0             1 
    83 u_1_5_7      *              0             0             1 
    84 r_2_5_7      *              1             0             1 
    85 u_2_5_7      *              0             0             1 
    86 r_1_7_8      *              1             0             1 
    87 u_1_7_8      *              0             0             1 
    88 r_2_7_8      *              1             0             1 
    89 u_2_7_8      *              0             0             1 

Integer feasibility conditions:

KKT.PE: max.abs.err = 4.55e-13 on row 43
        max.rel.err = 1.11e-16 on row 236
        High quality

KKT.PB: max.abs.err = 0.00e+00 on row 0
        max.rel.err = 0.00e+00 on row 0
        High quality

End of output
